c read Graph
c width = 177
c time = 88 ms
c width = 14
c time = 183 ms
c width = 13
c time = 241 ms
c width = 12
c time = 953 ms
c width = 11
c time = 2701 ms
c width = 11
c time = 4914 ms
s td 175 12 190
b 1 1 2 20
b 2 2 3 20 21
b 3 17 18 37 38
b 4 3 20 21 39
b 5 17 37 38 57
b 6 134 153 154 173
b 7 152 170 171 189
b 8 134 154 173 174
b 9 152 170 188 189
b 10 3 4 5 23
b 11 3 5 22 23 40 58
b 12 5 22 23 40 42 58 60
b 13 5 23 40 42 58 60 78
b 14 40 58 59 60 78
b 15 5 23 42 58 60 78 96
b 16 5 23 25 42 43 60 78 96
b 17 5 23 24 25 43
b 18 5 25 42 43 60 63 78 80 81 96
b 19 5 25 43 60 63 78 80 81 96 98
b 20 5 25 43 63 78 80 81 96 98 99
b 21 5 25 43 63 78 81 96 98 99 116
b 22 5 25 43 63 81 96 98 99 116 117
b 23 5 25 43 63 81 96 99 116 117 137 157 177
b 24 5 25 43 63 81 99 117 119 137 157 177
b 25 99 117 118 119 137
b 26 5 25 43 63 81 99 101 119 137 157 177
b 27 81 99 100 101 119
b 28 5 25 43 63 81 101 119 137 139 157 177
b 29 119 137 138 139 157
b 30 5 25 43 45 63 81 101 119 139 157 177
b 31 5 25 45 63 81 83 101 119 139 157 177
b 32 5 25 45 63 83 101 119 121 139 157 177
b 33 5 25 45 63 65 83 101 121 139 157 177
b 34 5 25 45 65 83 101 103 121 139 157 177
b 35 83 101 102 103 121
b 36 5 9 25 27 45 65 83 103 121 139 157 177
b 37 9 27 45 65 83 103 121 139 157 159 177
b 38 9 27 45 65 83 103 121 139 141 159 177
b 39 121 139 140 141 159
b 40 9 27 45 65 83 103 121 123 141 159 177
b 41 103 121 122 123 141
b 42 9 27 45 65 83 85 103 123 141 159 177
b 43 65 83 84 85 103
b 44 9 27 45 47 65 85 103 123 141 159 177
b 45 27 45 46 47 65
b 46 9 27 29 47 65 85 103 123 141 159 177
b 47 9 27 28 29 47
b 48 9 29 47 65 67 85 103 123 141 159 177
b 49 9 29 47 67 85 103 105 123 141 159 177
b 50 85 103 104 105 123
b 51 9 29 47 67 85 87 105 123 141 159 177
b 52 9 29 47 49 67 87 105 123 141 159 177
b 53 9 29 49 67 69 87 105 123 141 159 177
b 54 9 11 29 49 69 87 105 123 141 159 177
b 55 11 29 31 49 69 87 105 123 141 159 177
b 56 11 13 31 49 69 87 105 123 141 159 177
b 57 13 31 49 51 69 87 105 123 141 159 177
b 58 31 49 50 51 69
b 59 13 31 33 51 69 87 105 123 141 159 177
b 60 13 31 32 33 51
b 61 13 33 51 69 87 105 123 141 159 161 177 181
b 62 13 33 51 69 87 105 123 141 143 161 177 181
b 63 13 33 51 69 87 105 123 143 161 163 177 181
b 64 13 33 51 69 87 105 123 143 163 177 181 183
b 65 163 181 182 183
b 66 13 33 51 69 87 105 123 125 143 163 183
b 67 105 123 124 125 143
b 68 13 33 51 69 87 105 125 143 145 163 183
b 69 13 33 51 69 87 105 125 145 163 165 183
b 70 13 33 51 69 87 105 125 145 165 183 185
b 71 13 33 51 69 87 105 107 125 145 165 185
b 72 87 105 106 107 125
b 73 13 33 51 69 87 107 125 127 145 165 185
b 74 107 125 126 127 145
b 75 13 33 51 69 87 89 107 127 145 165 185
b 76 13 33 51 69 89 107 127 145 147 165 185
b 77 13 33 51 69 89 107 109 127 147 165 185
b 78 13 33 51 69 89 109 127 129 147 165 185
b 79 109 127 128 129 147
b 80 13 33 51 69 71 89 109 129 147 165 185
b 81 13 33 51 71 89 91 109 129 147 165 185
b 82 71 89 90 91 109
b 83 51 69 70 71 89
b 84 89 107 108 109 127
b 85 127 145 146 147 165
b 86 69 87 88 89 107
b 87 165 183 184 185
b 88 145 163 164 165 183
b 89 125 143 144 145 163
b 90 143 161 162 163 181
b 91 123 141 142 143 161
b 92 141 159 161 177 179 181
b 93 161 179 180 181
b 94 141 159 160 161 179
b 95 159 177 178 179
b 96 11 12 13 31
b 97 11 29 30 31 49
b 98 9 10 11 29
b 99 49 67 68 69 87
b 100 29 47 48 49 67
b 101 67 85 86 87 105
b 102 47 65 66 67 85
b 103 139 157 158 159 177
b 104 5 7 9 25 27 45
b 105 5 6 7 25
b 106 7 25 26 27 45
b 107 7 8 9 27
b 108 45 63 64 65 83
b 109 101 119 120 121 139
b 110 63 81 82 83 101
b 111 25 43 44 45 63
b 112 96 116 117 137 157 175 177
b 113 157 175 176 177
b 114 96 116 117 137 155 157 175
b 115 96 116 117 135 137 155 175
b 116 96 116 134 135 155 175
b 117 96 115 116 134
b 118 134 135 155 174 175
b 119 134 135 154 155 174
b 120 117 135 136 137 155
b 121 137 155 156 157 175
b 122 78 96 97 98 116
b 123 60 78 79 80 98
b 124 42 43 60 62 63 80 81
b 125 42 60 61 62 80
b 126 58 77 78 96
b 127 22 40 41 42 60
b 128 3 22 39 40 58
b 129 3 21 22 39 40
b 130 33 51 52 53 71
b 131 91 109 110 111 129
b 132 147 165 166 167 185
b 133 129 147 148 149 167
b 134 56 74 75 76 94
b 135 74 92 93 94 112
b 136 13 17 33 35 36 53 54
b 137 17 36 54 56 74 76 94
b 138 13 33 51 53 71 91 109 129 147 165 185
b 139 13 33 53 71 91 109 129 147 165 167 185
b 140 13 33 53 71 91 109 129 147 149 167 185
b 141 13 33 53 71 91 109 111 129 149 167 185
b 142 13 33 53 71 91 111 129 131 149 167 185
b 143 13 33 53 71 72 91 111 131 149 167 185
b 144 13 33 53 72 91 92 111 131 149 167 185
b 145 13 33 53 72 92 111 112 131 149 167 185
b 146 76 94 112 131 149 151 152 167 185
b 147 13 17 33 36 53 54 74 76 94
b 148 13 33 53 54 72 74 76 92 94
b 149 13 33 53 72 74 76 92 94 112
b 150 13 33 53 72 76 92 94 112 131 149 167 185
b 151 76 92 94 112 131 149 167 185
b 152 111 129 130 131 149
b 153 131 149 151 152 167 185 187
b 154 167 185 186 187
b 155 131 149 151 152 167 169 187
b 156 151 152 169 187 188
b 157 151 152 169 170 188
b 158 149 167 168 169 187
b 159 131 149 150 151 169
b 160 13 15 17 33 35 53
b 161 13 14 15 33
b 162 15 16 17 35
b 163 15 33 34 35 53
b 164 36 54 55 56 74
b 165 17 36 56 57 76
b 166 17 36 37 56 57
b 167 54 72 73 74 92
b 168 76 94 112 131 132 151 152
b 169 76 94 112 114 132 152
b 170 94 112 113 114 132
b 171 114 132 133 152
b 172 76 94 95 114
b 173 171 189 190
b 174 153 172 173
b 175 18 19 38
1 2
2 4
3 175
3 5
4 129
5 166
6 174
6 8
7 173
7 9
8 119
9 157
10 11
11 128
11 12
12 127
12 13
13 15
13 14
15 126
15 16
16 18
16 17
18 124
18 19
19 123
19 20
20 21
21 122
21 22
22 23
23 112
23 24
24 25
24 26
26 27
26 28
28 30
28 29
30 111
30 31
31 110
31 32
32 109
32 33
33 108
33 34
34 36
34 35
36 104
36 37
37 103
37 38
38 40
38 39
40 42
40 41
42 44
42 43
44 46
44 45
46 48
46 47
48 102
48 49
49 51
49 50
51 101
51 52
52 100
52 53
53 99
53 54
54 98
54 55
55 97
55 56
56 96
56 57
57 59
57 58
59 61
59 60
61 92
61 62
62 91
62 63
63 90
63 64
64 65
64 66
66 67
66 68
68 89
68 69
69 88
69 70
70 87
70 71
71 73
71 72
73 75
73 74
75 86
75 76
76 85
76 77
77 84
77 78
78 80
78 79
80 83
80 81
81 138
81 82
92 95
92 94
92 93
104 105
104 107
104 106
112 113
112 114
114 121
114 115
115 120
115 116
116 117
116 118
118 119
124 125
128 129
130 138
131 141
132 139
133 140
134 137
135 149
136 160
136 147
137 165
137 164
137 147
138 139
139 140
140 141
141 142
142 152
142 143
143 144
144 145
145 150
146 168
146 153
146 151
147 148
148 167
148 149
149 150
150 151
153 154
153 155
155 159
155 158
155 156
156 157
160 161
160 162
160 163
165 166
168 169
169 170
169 171
169 172
